3:C2/c(15) PRIMITIVE                    
   1.00000000000000     
    -2.7599021738603242   -2.8061973140366545    0.4672178532255781
    -2.7599021738603242    2.8061973140366545    0.4672178532255781
     0.0060224111723945    0.0000000000000000   -5.6431663268487133
   Be   Ba   H 
     2     2    16
Direct
  0.7953697124628860  0.2046302875371069  0.7500000000000000
  0.2046302875371069  0.7953697124628860  0.2500000000000000
  0.7173721074655930  0.2826278925344070  0.2500000000000000
  0.2826278925344070  0.7173721074655930  0.7500000000000000
  0.8257713155602247  0.4916645081284869  0.8891686517250221
  0.1785908474797964  0.0373304273284134  0.1139650211022243
  0.7628928640557078  0.5802509757933549  0.6230100355103971
  0.2371071359442922  0.4197490242066451  0.3769899644896029
  0.7563615584431602  0.7351957817237178  0.5485563149764090
  0.2436384415568398  0.2648042182762822  0.4514436850235910
  0.8214091525202036  0.9626695726715866  0.8860349788977757
  0.1742286844397753  0.5083354918715131  0.1108313482749779
  0.4197490242066451  0.2371071359442922  0.8769899644896029
  0.5802509757933549  0.7628928640557078  0.1230100355103971
  0.4916645081284869  0.8257713155602247  0.3891686517250221
  0.5083354918715131  0.1742286844397753  0.6108313482749779
  0.0373304273284134  0.1785908474797964  0.6139650211022243
  0.9626695726715866  0.8214091525202036  0.3860349788977757
  0.7351957817237178  0.7563615584431602  0.0485563149764090
  0.2648042182762822  0.2436384415568398  0.9514436850235910
 
  0.00000000E+00  0.00000000E+00  0.00000000E+00
  0.00000000E+00  0.00000000E+00  0.00000000E+00
  0.00000000E+00  0.00000000E+00  0.00000000E+00
  0.00000000E+00  0.00000000E+00  0.00000000E+00
  0.00000000E+00  0.00000000E+00  0.00000000E+00
  0.00000000E+00  0.00000000E+00  0.00000000E+00
  0.00000000E+00  0.00000000E+00  0.00000000E+00
  0.00000000E+00  0.00000000E+00  0.00000000E+00
  0.00000000E+00  0.00000000E+00  0.00000000E+00
  0.00000000E+00  0.00000000E+00  0.00000000E+00
  0.00000000E+00  0.00000000E+00  0.00000000E+00
  0.00000000E+00  0.00000000E+00  0.00000000E+00
  0.00000000E+00  0.00000000E+00  0.00000000E+00
  0.00000000E+00  0.00000000E+00  0.00000000E+00
  0.00000000E+00  0.00000000E+00  0.00000000E+00
  0.00000000E+00  0.00000000E+00  0.00000000E+00
  0.00000000E+00  0.00000000E+00  0.00000000E+00
  0.00000000E+00  0.00000000E+00  0.00000000E+00
  0.00000000E+00  0.00000000E+00  0.00000000E+00
  0.00000000E+00  0.00000000E+00  0.00000000E+00
