3:C2/c(15) PRIMITIVE                    
   1.00000000000000     
    -2.7599021738603242   -2.8061973140366545    0.4672178532255781
    -2.7599021738603242    2.8061973140366545    0.4672178532255781
     0.0060224111723945    0.0000000000000000   -5.6431663268487133
   Be   Ba   H 
     2     2    16
Direct
  0.7953697124628892  0.2046302875371101  0.7500000000000000
  0.2046302875371101  0.7953697124628892  0.2500000000000000
  0.7173721074655937  0.2826278925344056  0.2500000000000000
  0.2826278925344056  0.7173721074655937  0.7500000000000000
  0.8257713155602270  0.4916645081284840  0.8891686517250255
  0.1785908474797951  0.0373304273284153  0.1139650211022259
  0.7628928640557064  0.5802509757933524  0.6230100355103967
  0.2371071359442944  0.4197490242066484  0.3769899644896030
  0.7563615584431573  0.7351957817237145  0.5485563149764103
  0.2436384415568404  0.2648042182762849  0.4514436850235886
  0.8214091525202052  0.9626695726715834  0.8860349788977742
  0.1742286844397726  0.5083354918715146  0.1108313482749744
  0.4197490242066484  0.2371071359442944  0.8769899644896033
  0.5802509757933524  0.7628928640557064  0.1230100355103973
  0.4916645081284840  0.8257713155602270  0.3891686517250255
  0.5083354918715146  0.1742286844397726  0.6108313482749745
  0.0373304273284153  0.1785908474797951  0.6139650211022258
  0.9626695726715834  0.8214091525202052  0.3860349788977736
  0.7351957817237145  0.7563615584431573  0.0485563149764109
  0.2648042182762849  0.2436384415568404  0.9514436850235897
 
  0.00000000E+00  0.00000000E+00  0.00000000E+00
  0.00000000E+00  0.00000000E+00  0.00000000E+00
  0.00000000E+00  0.00000000E+00  0.00000000E+00
  0.00000000E+00  0.00000000E+00  0.00000000E+00
  0.00000000E+00  0.00000000E+00  0.00000000E+00
  0.00000000E+00  0.00000000E+00  0.00000000E+00
  0.00000000E+00  0.00000000E+00  0.00000000E+00
  0.00000000E+00  0.00000000E+00  0.00000000E+00
  0.00000000E+00  0.00000000E+00  0.00000000E+00
  0.00000000E+00  0.00000000E+00  0.00000000E+00
  0.00000000E+00  0.00000000E+00  0.00000000E+00
  0.00000000E+00  0.00000000E+00  0.00000000E+00
  0.00000000E+00  0.00000000E+00  0.00000000E+00
  0.00000000E+00  0.00000000E+00  0.00000000E+00
  0.00000000E+00  0.00000000E+00  0.00000000E+00
  0.00000000E+00  0.00000000E+00  0.00000000E+00
  0.00000000E+00  0.00000000E+00  0.00000000E+00
  0.00000000E+00  0.00000000E+00  0.00000000E+00
  0.00000000E+00  0.00000000E+00  0.00000000E+00
  0.00000000E+00  0.00000000E+00  0.00000000E+00
