3:C2/c(15) PRIMITIVE
1.0
  -2.7586000   -2.8026869    0.4636817
  -2.7586000    2.8026869    0.4636817
  -0.0000000   -0.0000000   -5.6360354
Be Ba  H 
  2   2  16 
Direct
-0.20483  0.20483 -0.25000
 0.20483 -0.20483  0.25000
-0.28293  0.28293  0.25000
 0.28293 -0.28293 -0.25000
-0.17408  0.49202 -0.11077
 0.17832  0.03873  0.11341
-0.23685 -0.41888 -0.37683
 0.23685  0.41888  0.37683
-0.24329 -0.26287 -0.45141
 0.24329  0.26287  0.45141
-0.17832 -0.03873 -0.11341
 0.17408 -0.49202  0.11077
 0.41888  0.23685 -0.12317
-0.41888 -0.23685  0.12317
 0.49202 -0.17408  0.38923
-0.49202  0.17408 -0.38923
 0.03873  0.17832 -0.38659
-0.03873 -0.17832  0.38659
-0.26287 -0.24329  0.04859
 0.26287  0.24329 -0.04859
