Bi Ba Ti O                              
   1.00000000000000     
     3.9977592329755143    0.0000000000000000    0.0000000000000000
     0.0000000000000000    7.9489977221119714    0.0000000000000000
     0.0000000000000000    0.0000000000000000    3.9830114693078675
   Bi   Ba   Ti   O 
     1     1     2     6
Direct
 -0.0000000000000000  0.5000000000000000  0.3969563582385205
 -0.0000000000000000  0.0000000000000000  0.2665333386778196
  0.5000000000000000  0.7527339876090668  0.7763131391737174
  0.5000000000000000  0.2472660123909332  0.7763131391737174
 -0.0000000000000000  0.2646930377293737  0.7433635059877618
 -0.0000000000000000  0.7353069622706265  0.7433635059877618
  0.5000000000000000  0.7453337436971791  0.2548768002535162
  0.5000000000000000  0.2546662563028209  0.2548768002535162
  0.5000000000000000  0.0000000000000000  0.7638130162307055
  0.5000000000000000  0.5000000000000000  0.7137703960229476
 
  0.00000000E+00  0.00000000E+00  0.00000000E+00
  0.00000000E+00  0.00000000E+00  0.00000000E+00
  0.00000000E+00  0.00000000E+00  0.00000000E+00
  0.00000000E+00  0.00000000E+00  0.00000000E+00
  0.00000000E+00  0.00000000E+00  0.00000000E+00
  0.00000000E+00  0.00000000E+00  0.00000000E+00
  0.00000000E+00  0.00000000E+00  0.00000000E+00
  0.00000000E+00  0.00000000E+00  0.00000000E+00
  0.00000000E+00  0.00000000E+00  0.00000000E+00
  0.00000000E+00  0.00000000E+00  0.00000000E+00
