 W S
   1.0
     3.1451411999999999    0.0000000000000000    0.0000000000000000
    -1.5725705900000000    2.7237721800000001    0.0000000000000000
     0.0000000000000000    0.0000000000000000   12.5673852799999999
   2   4
Selective Dynamics
Direct
   0.6666666700000000  0.3333333300000000  0.7500000000000000  F F T
   0.3333333300000000  0.6666666700000000  0.2500000000000000  F F T
   0.6666666700000000  0.3333333300000000  0.1251892900000000  F F T
   0.3333333300000000  0.6666666700000000  0.6251892900000000  F F T
   0.6666666700000000  0.3333333300000000  0.3748107100000000  F F T
   0.3333333300000000  0.6666666700000000  0.8748107100000000  F F T
