&CONTROL
  calculation = 'scf'
!  etot_conv_thr =   1.0d-8,
!  forc_conv_thr =   1.0d-6,
  outdir = './tmp/'
  prefix = 'BaH12'
  pseudo_dir = '/scratch/yf1159/pwwork/psp/dojo/BaH/PBE',
!  wf_collect = .true.
!  tprnfor = .true.
!  tstress = .true.
  verbosity = 'high'
/
&SYSTEM
  degauss =   0.005,
  ecutrho =   400
  ecutwfc =   100
  ibrav = 0
  nat = 26
  nosym = .false.
  ntyp = 2
  occupations = 'smearing'
  smearing = 'mp'
/
&ELECTRONS
  conv_thr =   1.0d-12,
  electron_maxstep = 200
  mixing_beta =   0.3,
/
!&ions
!  ion_dynamics = 'bfgs'
/
&cell
  press = 1400.D0
  press_conv_thr = 0.1D0 !kbar
/
ATOMIC_SPECIES
Ba     137.327 Ba.upf
H      1.00794 H.upf
K_POINTS automatic
12 12 8 0 0 0
CELL_PARAMETERS angstrom
   3.869118064  -0.003772730   0.000000000
  -0.005081864   3.869116641   0.000000000
   0.000000000   0.000000000   5.417072843
ATOMIC_POSITIONS angstrom
Ba            2.8034687168        1.0615159491        3.9347832822
Ba            1.0605673690        2.8038278461        1.2262467800
H             1.7981290798        0.8276208788        0.3995829644
H             2.0659070050        3.0377229164        3.1081193861
H             0.8270122580        1.7984091685        3.1081193423
H             3.0370238268        2.0669346267        0.3995829206
H             3.7547196698        0.6953178854        0.3890444343
H             0.1093166318        3.1700259683        3.0975809366
H             0.6940476539        3.7549551124        3.0975809631
H             3.1699884884        0.1103888986        0.3890444608
H             2.9801232017        1.9230891567        1.4440734286
H             0.8839131136        1.9422548690        4.1526098493
H             1.9220806185        2.9807737194        4.1526098923
H             1.9419556968        0.8845703063        1.4440734715
H             2.9690473295        3.7298005556        1.5106123835
H             0.8949889292        0.1355433976        4.2191488052
H             3.7287954439        2.9703090971        4.2191483989
H             0.1352407999        0.8950348710        1.5106119772
H             3.0014833063        2.1608240992        2.2253325601
H             0.8625529514        1.7045198122        4.9338691428
H             2.1598084653        3.0022142185        4.9338691407
H             1.7042277347        0.8631297497        2.2253325581
H             2.8782149039        3.5095767190        2.2538294964
H             0.9858212963        0.3557671049        4.9623660791
H             3.5086027504        2.8794022842        4.9623658252
H             0.3554333641        0.9859416264        2.2538292425
