2:C2/c(15) PRIMITIVE                    
   1.00000000000000     
     2.7594816474907211    2.8061659436316151    0.4700443737575910
     2.7594816474907211   -2.8061659436316151    0.4700443737575910
    -0.0003706375993374    0.0000000000000000   -5.6430117369503101
   Be   Ba   H 
     2     2    16
Direct
  0.2953910824407388  0.7046089175592609  0.7500000000000000
  0.7046089175592609  0.2953910824407388  0.2500000000000000
  0.2173887342633276  0.7826112657366728  0.2500000000000000
  0.7826112657366728  0.2173887342633276  0.7500000000000000
  0.2351585877280991  0.2563029542043792  0.0485355982265261
  0.7648414122719008  0.7436970457956219  0.9514644017734728
  0.0802265431143036  0.2628742255915314  0.1230012124831066
  0.9197734568856960  0.7371257744084695  0.8769987875168935
  0.4625992036833969  0.3213649821516559  0.3859994971348388
  0.0083699028748386  0.6741955897149491  0.6108175643838408
  0.5374007963166031  0.6786350178483431  0.6140005028651603
  0.9916300971251603  0.3258044102850489  0.3891824356161598
  0.2628742255915314  0.0802265431143036  0.6230012124831065
  0.7371257744084695  0.9197734568856960  0.3769987875168935
  0.6786350178483431  0.5374007963166031  0.1140005028651610
  0.3213649821516559  0.4625992036833969  0.8859994971348397
  0.7436970457956219  0.7648414122719008  0.4514644017734738
  0.2563029542043792  0.2351585877280991  0.5485355982265272
  0.6741955897149491  0.0083699028748386  0.1108175643838410
  0.3258044102850489  0.9916300971251603  0.8891824356161592
 
  0.00000000E+00  0.00000000E+00  0.00000000E+00
  0.00000000E+00  0.00000000E+00  0.00000000E+00
  0.00000000E+00  0.00000000E+00  0.00000000E+00
  0.00000000E+00  0.00000000E+00  0.00000000E+00
  0.00000000E+00  0.00000000E+00  0.00000000E+00
  0.00000000E+00  0.00000000E+00  0.00000000E+00
  0.00000000E+00  0.00000000E+00  0.00000000E+00
  0.00000000E+00  0.00000000E+00  0.00000000E+00
  0.00000000E+00  0.00000000E+00  0.00000000E+00
  0.00000000E+00  0.00000000E+00  0.00000000E+00
  0.00000000E+00  0.00000000E+00  0.00000000E+00
  0.00000000E+00  0.00000000E+00  0.00000000E+00
  0.00000000E+00  0.00000000E+00  0.00000000E+00
  0.00000000E+00  0.00000000E+00  0.00000000E+00
  0.00000000E+00  0.00000000E+00  0.00000000E+00
  0.00000000E+00  0.00000000E+00  0.00000000E+00
  0.00000000E+00  0.00000000E+00  0.00000000E+00
  0.00000000E+00  0.00000000E+00  0.00000000E+00
  0.00000000E+00  0.00000000E+00  0.00000000E+00
  0.00000000E+00  0.00000000E+00  0.00000000E+00
