2:C2/c(15) PRIMITIVE                    
   1.00000000000000     
     2.7594816474907211    2.8061659436316151    0.4700443737575910
     2.7594816474907211   -2.8061659436316151    0.4700443737575910
    -0.0003706375993374    0.0000000000000000   -5.6430117369503101
   Be   Ba   H 
     2     2    16
Direct
  0.2953910824407373  0.7046089175592627  0.7500000000000000
  0.7046089175592627  0.2953910824407373  0.2500000000000000
  0.2173887342633307  0.7826112657366764  0.2500000000000000
  0.7826112657366764  0.2173887342633307  0.7500000000000000
  0.2351585877281011  0.2563029542043793  0.0485355982265290
  0.7648414122718989  0.7436970457956207  0.9514644017734710
  0.0802265431143070  0.2628742255915313  0.1230012124831035
  0.9197734568856930  0.7371257744084687  0.8769987875168965
  0.4625992036833964  0.3213649821516569  0.3859994971348399
  0.0083699028748399  0.6741955897149481  0.6108175643838436
  0.5374007963166036  0.6786350178483431  0.6140005028651601
  0.9916300971251601  0.3258044102850519  0.3891824356161564
  0.2628742255915313  0.0802265431143070  0.6230012124831035
  0.7371257744084687  0.9197734568856930  0.3769987875168965
  0.6786350178483431  0.5374007963166036  0.1140005028651601
  0.3213649821516569  0.4625992036833964  0.8859994971348399
  0.7436970457956207  0.7648414122718989  0.4514644017734710
  0.2563029542043793  0.2351585877281011  0.5485355982265290
  0.6741955897149481  0.0083699028748399  0.1108175643838436
  0.3258044102850519  0.9916300971251601  0.8891824356161564
 
  0.00000000E+00  0.00000000E+00  0.00000000E+00
  0.00000000E+00  0.00000000E+00  0.00000000E+00
  0.00000000E+00  0.00000000E+00  0.00000000E+00
  0.00000000E+00  0.00000000E+00  0.00000000E+00
  0.00000000E+00  0.00000000E+00  0.00000000E+00
  0.00000000E+00  0.00000000E+00  0.00000000E+00
  0.00000000E+00  0.00000000E+00  0.00000000E+00
  0.00000000E+00  0.00000000E+00  0.00000000E+00
  0.00000000E+00  0.00000000E+00  0.00000000E+00
  0.00000000E+00  0.00000000E+00  0.00000000E+00
  0.00000000E+00  0.00000000E+00  0.00000000E+00
  0.00000000E+00  0.00000000E+00  0.00000000E+00
  0.00000000E+00  0.00000000E+00  0.00000000E+00
  0.00000000E+00  0.00000000E+00  0.00000000E+00
  0.00000000E+00  0.00000000E+00  0.00000000E+00
  0.00000000E+00  0.00000000E+00  0.00000000E+00
  0.00000000E+00  0.00000000E+00  0.00000000E+00
  0.00000000E+00  0.00000000E+00  0.00000000E+00
  0.00000000E+00  0.00000000E+00  0.00000000E+00
  0.00000000E+00  0.00000000E+00  0.00000000E+00
