pymatgen with grid density = 3985 / number of atoms
0
Monkhorst
6 6 4
