2:C2/c(15) PRIMITIVE
1.0
   2.7568768    2.8037552    0.4693872
   2.7568768   -2.8037552    0.4693872
   0.0000000    0.0000000   -5.6372995
Be Ba  H 
  2   2  16 
Direct
 0.29361 -0.29361 -0.25000
-0.29361  0.29361  0.25000
 0.21558 -0.21558  0.25000
-0.21558  0.21558 -0.25000
 0.23494  0.25814  0.04921
-0.23494 -0.25814 -0.04921
 0.07925  0.26457  0.12368
-0.07925 -0.26457 -0.12368
 0.46026  0.32317  0.38661
 0.00592 -0.32436 -0.38917
-0.46026 -0.32317 -0.38661
-0.00592  0.32436  0.38917
 0.26457  0.07925 -0.37632
-0.26457 -0.07925  0.37632
-0.32317 -0.46026  0.11339
 0.32317  0.46026 -0.11339
-0.25814 -0.23494  0.45079
 0.25814  0.23494 -0.45079
-0.32436  0.00592  0.11083
 0.32436 -0.00592 -0.11083
