global                                  
   1.00000000000000     
     3.9977600573999998    0.0000000000000000    0.0000000000000000
     0.0000000000000000   80.0000000000000000    0.0000000000000000
     0.0000000000000000    0.0000000000000000    3.9830100536000002
   Bi   Ba   Sr   Ti   O 
     2     2    11    16    47
Direct
  0.0000000000000000  0.8454886665825978  0.3421911164263742
  0.0000000000000000  0.1545113484174070  0.3421911164263742
  0.0000000000000000  0.7940356731560834  0.2451810930120520
  0.0000000000000000  0.2059643268439167  0.2451810930120520
  0.0000000000000000  0.5000000000000000  0.3522608853656407
  0.0000000000000000  0.5963486050461055  0.3312361627428844
 -0.0000000000000000  0.6942976999088503  0.2938435222467913
 -0.0000000000000000  0.5479146657127290  0.3470850113980113
  0.0000000000000000  0.6451815780718512  0.3125477146421001
 -0.0000000000000000  0.7437994619266780  0.2636025645563528
  0.0000000000000000  0.4036514249538970  0.3312361627428844
  0.0000000000000000  0.3057023000911500  0.2938435222467913
 -0.0000000000000000  0.4520853342872710  0.3470850113980113
  0.0000000000000000  0.3548183919281465  0.3125477146421001
  0.0000000000000000  0.2562005380733224  0.2636025645563528
  0.5000000000000000  0.5238695531187948  0.8488177126682165
  0.5000000000000000  0.6205674329152152  0.8211767091389424
  0.5000000000000000  0.7187339732706918  0.7834754431413437
  0.5000000000000000  0.5719377204945049  0.8371806460037282
  0.5000000000000000  0.6695723787258167  0.8035417574039349
  0.5000000000000000  0.7677098227181859  0.7538084244414326
  0.5000000000000000  0.8204424708174081  0.7484684223806638
  0.5000000000000000  0.8700947593622405  0.7469424626231533
  0.5000000000000000  0.4761304168812109  0.8488177126682165
  0.5000000000000000  0.3794325670847850  0.8211767091389424
  0.5000000000000000  0.2812660567293030  0.7834754431413437
  0.5000000000000000  0.4280622795054949  0.8371806460037282
  0.5000000000000000  0.3304276212741908  0.8035417574039349
  0.5000000000000000  0.2322902072818093  0.7538084244414326
  0.5000000000000000  0.1795574991825893  0.7484684223806638
  0.5000000000000000  0.1299052406377596  0.7469424626231533
  0.0000000000000000  0.5241914163056292  0.7793611904337749
  0.0000000000000000  0.6223133642529901  0.7539049682133822
 -0.0000000000000000  0.7210175336253000  0.7180158026797591
 -0.0000000000000000  0.5730876649244574  0.7681920953184630
  0.0000000000000000  0.6715878112997135  0.7375255447816391
  0.0000000000000000  0.7709508026790051  0.7359046041892647
  0.5000000000000000  0.5251231014563204  0.3010353295132615
  0.5000000000000000  0.6235501020834316  0.2744649518848963
  0.5000000000000000  0.7220522823737198  0.2374318104929559
  0.5000000000000000  0.5744677466624966  0.2898604846418092
  0.5000000000000000  0.6727481954962249  0.2568499098530687
  0.5000000000000000  0.7710640563469020  0.2396233803316253
  0.5000000000000000  0.5000000000000000  0.8056247605761776
  0.5000000000000000  0.5978261025985137  0.7927140045203357
  0.5000000000000000  0.6962442396700202  0.7585470808242293
  0.5000000000000000  0.5487985351514892  0.8029607399045220
  0.5000000000000000  0.6470027373792334  0.7768831410892099
  0.5000000000000000  0.7454935596974381  0.7447001253076387
  0.0000000000000000  0.8248108994575047  0.7260214037814051
 -0.0000000000000000  0.8694656827882035  0.6585237244389586
  0.5000000000000000  0.8245362713829819  0.2316218826197751
  0.5000000000000000  0.8741147420936662  0.1799319315781810
  0.5000000000000000  0.7980592001096031  0.7424013274454833
  0.5000000000000000  0.8473944187399456  0.6810297493593673
  0.0000000000000000  0.4758086126943771  0.7793611904337749
 -0.0000000000000000  0.3776866057470140  0.7539049682133822
 -0.0000000000000000  0.2789824663746998  0.7180158026797591
 -0.0000000000000000  0.4269123350755426  0.7681920953184630
  0.0000000000000000  0.3284122177002850  0.7375255447816391
  0.0000000000000000  0.2290491823209975  0.7359046041892647
  0.5000000000000000  0.4748769275436857  0.3010353295132615
  0.5000000000000000  0.3764498979165610  0.2744649518848964
  0.5000000000000000  0.2779477176262804  0.2374318104929559
  0.5000000000000000  0.4255322533375037  0.2898604846418092
  0.5000000000000000  0.3272518345037771  0.2568499098530687
  0.5000000000000000  0.2289359286531002  0.2396233803316253
  0.5000000000000000  0.4021739274014893  0.7927140045203357
  0.5000000000000000  0.3037557603299796  0.7585470808242293
  0.5000000000000000  0.4512014648485104  0.8029607399045220
  0.5000000000000000  0.3529972326207645  0.7768831410892099
  0.5000000000000000  0.2545064403025620  0.7447001253076387
  0.0000000000000000  0.1751891305424908  0.7260214037814051
  0.0000000000000000  0.1305343172117963  0.6585237244389586
  0.5000000000000000  0.1754636986170233  0.2316218826197751
  0.5000000000000000  0.1258852729063381  0.1799319315781810
  0.5000000000000000  0.2019407998903966  0.7424013274454833
  0.5000000000000000  0.1526055962600593  0.6810297493593673
 
  0.00000000E+00  0.00000000E+00  0.00000000E+00
  0.00000000E+00  0.00000000E+00  0.00000000E+00
  0.00000000E+00  0.00000000E+00  0.00000000E+00
  0.00000000E+00  0.00000000E+00  0.00000000E+00
  0.00000000E+00  0.00000000E+00  0.00000000E+00
  0.00000000E+00  0.00000000E+00  0.00000000E+00
  0.00000000E+00  0.00000000E+00  0.00000000E+00
  0.00000000E+00  0.00000000E+00  0.00000000E+00
  0.00000000E+00  0.00000000E+00  0.00000000E+00
  0.00000000E+00  0.00000000E+00  0.00000000E+00
  0.00000000E+00  0.00000000E+00  0.00000000E+00
  0.00000000E+00  0.00000000E+00  0.00000000E+00
  0.00000000E+00  0.00000000E+00  0.00000000E+00
  0.00000000E+00  0.00000000E+00  0.00000000E+00
  0.00000000E+00  0.00000000E+00  0.00000000E+00
  0.00000000E+00  0.00000000E+00  0.00000000E+00
  0.00000000E+00  0.00000000E+00  0.00000000E+00
  0.00000000E+00  0.00000000E+00  0.00000000E+00
  0.00000000E+00  0.00000000E+00  0.00000000E+00
  0.00000000E+00  0.00000000E+00  0.00000000E+00
  0.00000000E+00  0.00000000E+00  0.00000000E+00
  0.00000000E+00  0.00000000E+00  0.00000000E+00
  0.00000000E+00  0.00000000E+00  0.00000000E+00
  0.00000000E+00  0.00000000E+00  0.00000000E+00
  0.00000000E+00  0.00000000E+00  0.00000000E+00
  0.00000000E+00  0.00000000E+00  0.00000000E+00
  0.00000000E+00  0.00000000E+00  0.00000000E+00
  0.00000000E+00  0.00000000E+00  0.00000000E+00
  0.00000000E+00  0.00000000E+00  0.00000000E+00
  0.00000000E+00  0.00000000E+00  0.00000000E+00
  0.00000000E+00  0.00000000E+00  0.00000000E+00
  0.00000000E+00  0.00000000E+00  0.00000000E+00
  0.00000000E+00  0.00000000E+00  0.00000000E+00
  0.00000000E+00  0.00000000E+00  0.00000000E+00
  0.00000000E+00  0.00000000E+00  0.00000000E+00
  0.00000000E+00  0.00000000E+00  0.00000000E+00
  0.00000000E+00  0.00000000E+00  0.00000000E+00
  0.00000000E+00  0.00000000E+00  0.00000000E+00
  0.00000000E+00  0.00000000E+00  0.00000000E+00
  0.00000000E+00  0.00000000E+00  0.00000000E+00
  0.00000000E+00  0.00000000E+00  0.00000000E+00
  0.00000000E+00  0.00000000E+00  0.00000000E+00
  0.00000000E+00  0.00000000E+00  0.00000000E+00
  0.00000000E+00  0.00000000E+00  0.00000000E+00
  0.00000000E+00  0.00000000E+00  0.00000000E+00
  0.00000000E+00  0.00000000E+00  0.00000000E+00
  0.00000000E+00  0.00000000E+00  0.00000000E+00
  0.00000000E+00  0.00000000E+00  0.00000000E+00
  0.00000000E+00  0.00000000E+00  0.00000000E+00
  0.00000000E+00  0.00000000E+00  0.00000000E+00
  0.00000000E+00  0.00000000E+00  0.00000000E+00
  0.00000000E+00  0.00000000E+00  0.00000000E+00
  0.00000000E+00  0.00000000E+00  0.00000000E+00
  0.00000000E+00  0.00000000E+00  0.00000000E+00
  0.00000000E+00  0.00000000E+00  0.00000000E+00
  0.00000000E+00  0.00000000E+00  0.00000000E+00
  0.00000000E+00  0.00000000E+00  0.00000000E+00
  0.00000000E+00  0.00000000E+00  0.00000000E+00
  0.00000000E+00  0.00000000E+00  0.00000000E+00
  0.00000000E+00  0.00000000E+00  0.00000000E+00
  0.00000000E+00  0.00000000E+00  0.00000000E+00
  0.00000000E+00  0.00000000E+00  0.00000000E+00
  0.00000000E+00  0.00000000E+00  0.00000000E+00
  0.00000000E+00  0.00000000E+00  0.00000000E+00
  0.00000000E+00  0.00000000E+00  0.00000000E+00
  0.00000000E+00  0.00000000E+00  0.00000000E+00
  0.00000000E+00  0.00000000E+00  0.00000000E+00
  0.00000000E+00  0.00000000E+00  0.00000000E+00
  0.00000000E+00  0.00000000E+00  0.00000000E+00
  0.00000000E+00  0.00000000E+00  0.00000000E+00
  0.00000000E+00  0.00000000E+00  0.00000000E+00
  0.00000000E+00  0.00000000E+00  0.00000000E+00
  0.00000000E+00  0.00000000E+00  0.00000000E+00
  0.00000000E+00  0.00000000E+00  0.00000000E+00
  0.00000000E+00  0.00000000E+00  0.00000000E+00
  0.00000000E+00  0.00000000E+00  0.00000000E+00
  0.00000000E+00  0.00000000E+00  0.00000000E+00
  0.00000000E+00  0.00000000E+00  0.00000000E+00
