PbTiO_3                                 
   3.89500000000000     
     1.0    0.0000000000000000    0.0000000000000000
     0.0000000000000000    1.0    0.0000000000000000
     0.0000000000000000    0.0000000000000000    1.2
Bi Fe O
   1   1   3
Selective dynamics
Direct
  0.0000000000000000  0.0000000000000000  0.0   F   F   T
  0.5000000000000000  0.5000000000000000  0.5000000000000000   F   F   F
  0.5000000000000000  0.5000000000000000  0.0   F   F   T
  0.0000000000000000  0.5000000000000000  0.5   F   F   T
  0.5000000000000000  0.0000000000000000  0.5   F   F   T
 
  0.00000000E+00  0.00000000E+00  0.00000000E+00
  0.00000000E+00  0.00000000E+00  0.00000000E+00
  0.00000000E+00  0.00000000E+00  0.00000000E+00
  0.00000000E+00  0.00000000E+00  0.00000000E+00
  0.00000000E+00  0.00000000E+00  0.00000000E+00
