 BiBaTiO                                
   1.00000000000000     
     4.9955000036388597   -0.0846031642265850    1.9322114033640638
     2.2926718333946865    7.1398534038121362    0.9157131875251443
    20.2551101103224234    8.8141767845738741   13.2649845784252030
   Bi   Ba   Ti   O 
     1     1     2     6
Direct
  0.5000000000000000  0.5000000000000000  0.0000000000000000
  0.0000000000000000  0.0000000000000000  0.5000000000000000
  0.0000000000000000  0.0000000000000000  0.0000000000000000
  0.5000000000000000  0.0000000000000000  0.0000000000000000
  0.0000000000000000  0.5000000000000000  0.0000000000000000
  0.5000000000000000  0.0000000000000000  0.5000000000000000
  0.7325065132090884  0.9617494855706141  0.8937597123985697
  0.2674934867909258  0.0382505144293788  0.1062402876014303
  0.6624876988874462  0.7736174119433485  0.0420989246814329
  0.3375123011125609  0.2263825880566444  0.9579010753185813
 
  0.00000000E+00  0.00000000E+00  0.00000000E+00
  0.00000000E+00  0.00000000E+00  0.00000000E+00
  0.00000000E+00  0.00000000E+00  0.00000000E+00
  0.00000000E+00  0.00000000E+00  0.00000000E+00
  0.00000000E+00  0.00000000E+00  0.00000000E+00
  0.00000000E+00  0.00000000E+00  0.00000000E+00
  0.00000000E+00  0.00000000E+00  0.00000000E+00
  0.00000000E+00  0.00000000E+00  0.00000000E+00
  0.00000000E+00  0.00000000E+00  0.00000000E+00
  0.00000000E+00  0.00000000E+00  0.00000000E+00
