1:Fm2m(42)                              
   1.00000000000000     
     4.8942140112516057    0.0000000000000000    0.0000000000000000
     0.0000000000000000   12.9319314660720686    0.0000000000000000
     0.0000000000000000    0.0000000000000000    5.3493828916459467
   Be   Ba   H 
     8     8    64
Direct
  0.2500000000000000  0.9338462177676007  0.2500000000000000
  0.2500000000000000  0.9338462177676007  0.7500000000000000
  0.2500000000000000  0.4338462177676010  0.7500000000000000
  0.2500000000000000  0.4338462177676010  0.2500000000000000
  0.7500000000000000  0.9338462177676007  0.7500000000000000
  0.7500000000000000  0.9338462177676007  0.2500000000000000
  0.7500000000000000  0.4338462177676010  0.2500000000000000
  0.7500000000000000  0.4338462177676010  0.7500000000000000
  0.0000000000000000  0.7940392126139759 -0.0000000000000000
  0.0000000000000000  0.2072898290825207 -0.0000000000000000
  0.0000000000000000  0.2940392126139734  0.5000000000000000
  0.0000000000000000  0.7072898290825229  0.5000000000000000
  0.5000000000000000  0.7940392126139759  0.5000000000000000
  0.5000000000000000  0.2072898290825207  0.5000000000000000
  0.5000000000000000  0.2940392126139734 -0.0000000000000000
  0.5000000000000000  0.7072898290825229 -0.0000000000000000
  0.6461179271006319  0.8879874190167240 -0.0000000000000000
  0.3538820728993641  0.8879874190167240 -0.0000000000000000
  0.0000000000000000  0.1223951650542895  0.3490310942901668
  0.0000000000000000  0.1223951650542895  0.6509689057098311
  0.0000000000000000  0.1223951650542895  0.3490310942901668
  0.0000000000000000  0.1223951650542895  0.6509689057098311
  0.1019627899466809  0.0110232661177836  0.3720928684080316
  0.8980372100533167  0.0110232661177836  0.6279071315919713
  0.8980372100533167  0.0110232661177836  0.3720928684080316
  0.1019627899466810  0.0110232661177836  0.6279071315919713
  0.7931779786272444  0.0434268930733446  0.1101907375739379
  0.2068220213727572  0.0434268930733446  0.8898092624260623
  0.2068220213727572  0.0434268930733446  0.1101907375739379
  0.7931779786272444  0.0434268930733446  0.8898092624260623
  0.0000000000000000  0.9467932081409027 -0.0000000000000000
  0.0000000000000000  0.0448091796122519 -0.0000000000000000
  0.6461179271006319  0.3879874190167280  0.5000000000000000
  0.3538820728993641  0.3879874190167280  0.5000000000000000
  0.0000000000000000  0.6223951650542898  0.8490310942901689
  0.0000000000000000  0.6223951650542898  0.1509689057098342
  0.0000000000000000  0.6223951650542898  0.8490310942901689
  0.0000000000000000  0.6223951650542898  0.1509689057098342
  0.1019627899466809  0.5110232661177879  0.8720928684080287
  0.8980372100533167  0.5110232661177879  0.1279071315919669
  0.8980372100533167  0.5110232661177879  0.8720928684080287
  0.1019627899466810  0.5110232661177879  0.1279071315919669
  0.7931779786272444  0.5434268930733470  0.6101907375739377
  0.2068220213727572  0.5434268930733470  0.3898092624260627
  0.2068220213727572  0.5434268930733470  0.6101907375739377
  0.7931779786272444  0.5434268930733470  0.3898092624260627
  0.0000000000000000  0.4467932081409028  0.5000000000000000
  0.0000000000000000  0.5448091796122557  0.5000000000000000
  0.1461179271006342  0.8879874190167240  0.5000000000000000
  0.8538820728993681  0.8879874190167240  0.5000000000000000
  0.5000000000000000  0.1223951650542895  0.8490310942901689
  0.5000000000000000  0.1223951650542895  0.1509689057098342
  0.5000000000000000  0.1223951650542895  0.8490310942901689
  0.5000000000000000  0.1223951650542895  0.1509689057098342
  0.6019627899466833  0.0110232661177836  0.8720928684080287
  0.3980372100533167  0.0110232661177836  0.1279071315919669
  0.3980372100533167  0.0110232661177836  0.8720928684080287
  0.6019627899466833  0.0110232661177836  0.1279071315919669
  0.2931779786272432  0.0434268930733446  0.6101907375739377
  0.7068220213727556  0.0434268930733446  0.3898092624260627
  0.7068220213727556  0.0434268930733446  0.6101907375739377
  0.2931779786272433  0.0434268930733446  0.3898092624260627
  0.5000000000000000  0.9467932081409027  0.5000000000000000
  0.5000000000000000  0.0448091796122519  0.5000000000000000
  0.1461179271006342  0.3879874190167280 -0.0000000000000000
  0.8538820728993681  0.3879874190167280 -0.0000000000000000
  0.5000000000000000  0.6223951650542898  0.3490310942901668
  0.5000000000000000  0.6223951650542898  0.6509689057098311
  0.5000000000000000  0.6223951650542898  0.3490310942901668
  0.5000000000000000  0.6223951650542898  0.6509689057098311
  0.6019627899466833  0.5110232661177879  0.3720928684080316
  0.3980372100533167  0.5110232661177879  0.6279071315919713
  0.3980372100533167  0.5110232661177879  0.3720928684080316
  0.6019627899466833  0.5110232661177879  0.6279071315919713
  0.2931779786272432  0.5434268930733470  0.1101907375739379
  0.7068220213727556  0.5434268930733470  0.8898092624260623
  0.7068220213727556  0.5434268930733470  0.1101907375739379
  0.2931779786272432  0.5434268930733470  0.8898092624260623
  0.5000000000000000  0.4467932081409028 -0.0000000000000000
  0.5000000000000000  0.5448091796122557 -0.0000000000000000
 
  0.00000000E+00  0.00000000E+00  0.00000000E+00
  0.00000000E+00  0.00000000E+00  0.00000000E+00
  0.00000000E+00  0.00000000E+00  0.00000000E+00
  0.00000000E+00  0.00000000E+00  0.00000000E+00
  0.00000000E+00  0.00000000E+00  0.00000000E+00
  0.00000000E+00  0.00000000E+00  0.00000000E+00
  0.00000000E+00  0.00000000E+00  0.00000000E+00
  0.00000000E+00  0.00000000E+00  0.00000000E+00
  0.00000000E+00  0.00000000E+00  0.00000000E+00
  0.00000000E+00  0.00000000E+00  0.00000000E+00
  0.00000000E+00  0.00000000E+00  0.00000000E+00
  0.00000000E+00  0.00000000E+00  0.00000000E+00
  0.00000000E+00  0.00000000E+00  0.00000000E+00
  0.00000000E+00  0.00000000E+00  0.00000000E+00
  0.00000000E+00  0.00000000E+00  0.00000000E+00
  0.00000000E+00  0.00000000E+00  0.00000000E+00
  0.00000000E+00  0.00000000E+00  0.00000000E+00
  0.00000000E+00  0.00000000E+00  0.00000000E+00
  0.00000000E+00  0.00000000E+00  0.00000000E+00
  0.00000000E+00  0.00000000E+00  0.00000000E+00
  0.00000000E+00  0.00000000E+00  0.00000000E+00
  0.00000000E+00  0.00000000E+00  0.00000000E+00
  0.00000000E+00  0.00000000E+00  0.00000000E+00
  0.00000000E+00  0.00000000E+00  0.00000000E+00
  0.00000000E+00  0.00000000E+00  0.00000000E+00
  0.00000000E+00  0.00000000E+00  0.00000000E+00
  0.00000000E+00  0.00000000E+00  0.00000000E+00
  0.00000000E+00  0.00000000E+00  0.00000000E+00
  0.00000000E+00  0.00000000E+00  0.00000000E+00
  0.00000000E+00  0.00000000E+00  0.00000000E+00
  0.00000000E+00  0.00000000E+00  0.00000000E+00
  0.00000000E+00  0.00000000E+00  0.00000000E+00
  0.00000000E+00  0.00000000E+00  0.00000000E+00
  0.00000000E+00  0.00000000E+00  0.00000000E+00
  0.00000000E+00  0.00000000E+00  0.00000000E+00
  0.00000000E+00  0.00000000E+00  0.00000000E+00
  0.00000000E+00  0.00000000E+00  0.00000000E+00
  0.00000000E+00  0.00000000E+00  0.00000000E+00
  0.00000000E+00  0.00000000E+00  0.00000000E+00
  0.00000000E+00  0.00000000E+00  0.00000000E+00
  0.00000000E+00  0.00000000E+00  0.00000000E+00
  0.00000000E+00  0.00000000E+00  0.00000000E+00
  0.00000000E+00  0.00000000E+00  0.00000000E+00
  0.00000000E+00  0.00000000E+00  0.00000000E+00
  0.00000000E+00  0.00000000E+00  0.00000000E+00
  0.00000000E+00  0.00000000E+00  0.00000000E+00
  0.00000000E+00  0.00000000E+00  0.00000000E+00
  0.00000000E+00  0.00000000E+00  0.00000000E+00
  0.00000000E+00  0.00000000E+00  0.00000000E+00
  0.00000000E+00  0.00000000E+00  0.00000000E+00
  0.00000000E+00  0.00000000E+00  0.00000000E+00
  0.00000000E+00  0.00000000E+00  0.00000000E+00
  0.00000000E+00  0.00000000E+00  0.00000000E+00
  0.00000000E+00  0.00000000E+00  0.00000000E+00
  0.00000000E+00  0.00000000E+00  0.00000000E+00
  0.00000000E+00  0.00000000E+00  0.00000000E+00
  0.00000000E+00  0.00000000E+00  0.00000000E+00
  0.00000000E+00  0.00000000E+00  0.00000000E+00
  0.00000000E+00  0.00000000E+00  0.00000000E+00
  0.00000000E+00  0.00000000E+00  0.00000000E+00
  0.00000000E+00  0.00000000E+00  0.00000000E+00
  0.00000000E+00  0.00000000E+00  0.00000000E+00
  0.00000000E+00  0.00000000E+00  0.00000000E+00
  0.00000000E+00  0.00000000E+00  0.00000000E+00
  0.00000000E+00  0.00000000E+00  0.00000000E+00
  0.00000000E+00  0.00000000E+00  0.00000000E+00
  0.00000000E+00  0.00000000E+00  0.00000000E+00
  0.00000000E+00  0.00000000E+00  0.00000000E+00
  0.00000000E+00  0.00000000E+00  0.00000000E+00
  0.00000000E+00  0.00000000E+00  0.00000000E+00
  0.00000000E+00  0.00000000E+00  0.00000000E+00
  0.00000000E+00  0.00000000E+00  0.00000000E+00
  0.00000000E+00  0.00000000E+00  0.00000000E+00
  0.00000000E+00  0.00000000E+00  0.00000000E+00
  0.00000000E+00  0.00000000E+00  0.00000000E+00
  0.00000000E+00  0.00000000E+00  0.00000000E+00
  0.00000000E+00  0.00000000E+00  0.00000000E+00
  0.00000000E+00  0.00000000E+00  0.00000000E+00
  0.00000000E+00  0.00000000E+00  0.00000000E+00
  0.00000000E+00  0.00000000E+00  0.00000000E+00
