pymatgen with grid density = 4131 / number of atoms
0
Gamma
5 1 4
