1:Fm2m(42)
1.0
   4.8280571    0.0000000    0.0000000
   0.0000000   13.0128315    0.0000000
   0.0000000    0.0000000    5.3515621
Be Ba  H 
  8   8  64 
Direct
 0.25000  0.93465  0.25000
 0.25000  0.93465  0.75000
 0.25000  0.43465  0.75000
 0.25000  0.43465  0.25000
 0.75000  0.93465  0.75000
 0.75000  0.93465  0.25000
 0.75000  0.43465  0.25000
 0.75000  0.43465  0.75000
 0.00000  0.79588  0.00000
 0.00000  0.20444  0.00000
 0.00000  0.29588  0.50000
 0.00000  0.70444  0.50000
 0.50000  0.79588  0.50000
 0.50000  0.20444  0.50000
 0.50000  0.29588  0.00000
 0.50000  0.70444  0.00000
 0.64404  0.88870  0.00000
 0.35596  0.88870  0.00000
 0.00000  0.12260  0.35103
 0.00000  0.12260  0.64897
 0.00000  0.12260  0.35103
 0.00000  0.12260  0.64897
 0.10103  0.01180  0.37587
 0.89897  0.01180  0.62413
 0.89897  0.01180  0.37587
 0.10103  0.01180  0.62413
 0.80449  0.04212  0.11460
 0.19551  0.04212  0.88540
 0.19551  0.04212  0.11460
 0.80449  0.04212  0.88540
 0.00000  0.94659  0.00000
 0.00000  0.04429  0.00000
 0.64404  0.38870  0.50000
 0.35596  0.38870  0.50000
 0.00000  0.62260  0.85103
 0.00000  0.62260  0.14897
 0.00000  0.62260  0.85103
 0.00000  0.62260  0.14897
 0.10103  0.51180  0.87587
 0.89897  0.51180  0.12413
 0.89897  0.51180  0.87587
 0.10103  0.51180  0.12413
 0.80449  0.54212  0.61460
 0.19551  0.54212  0.38540
 0.19551  0.54212  0.61460
 0.80449  0.54212  0.38540
 0.00000  0.44659  0.50000
 0.00000  0.54429  0.50000
 0.14404  0.88870  0.50000
 0.85596  0.88870  0.50000
 0.50000  0.12260  0.85103
 0.50000  0.12260  0.14897
 0.50000  0.12260  0.85103
 0.50000  0.12260  0.14897
 0.60103  0.01180  0.87587
 0.39897  0.01180  0.12413
 0.39897  0.01180  0.87587
 0.60103  0.01180  0.12413
 0.30449  0.04212  0.61460
 0.69551  0.04212  0.38540
 0.69551  0.04212  0.61460
 0.30449  0.04212  0.38540
 0.50000  0.94659  0.50000
 0.50000  0.04429  0.50000
 0.14404  0.38870  0.00000
 0.85596  0.38870  0.00000
 0.50000  0.62260  0.35103
 0.50000  0.62260  0.64897
 0.50000  0.62260  0.35103
 0.50000  0.62260  0.64897
 0.60103  0.51180  0.37587
 0.39897  0.51180  0.62413
 0.39897  0.51180  0.37587
 0.60103  0.51180  0.62413
 0.30449  0.54212  0.11460
 0.69551  0.54212  0.88540
 0.69551  0.54212  0.11460
 0.30449  0.54212  0.88540
 0.50000  0.44659  0.00000
 0.50000  0.54429  0.00000
